1536558
44,53,37,62,39,51,35,68,8,50,28,63,16,59,36,15,58,9,17,27,45,2,48,20,4,24,47,65,13,54,1,19,49,23,60,5,40,56,32,12,42,61,3,29,25,30,41,6,64,67,11,66,26,55,34,46,43,7,38,21,31,22,52,14,10,18,57,33